solution status: optimal solution found
objective value:                      167897.85303536
d11(0,0)                                            1 	(obj:0)
d11(1,1)                                            1 	(obj:0)
d11(1,2)                                            1 	(obj:0)
d11(1,3)                                            1 	(obj:0)
d11(2,4)                                            1 	(obj:0)
d11(2,5)                                            1 	(obj:0)
d11(2,6)                                            1 	(obj:0)
d11(2,7)                                            1 	(obj:0)
d11(2,8)                                            1 	(obj:0)
d11(2,9)                                            1 	(obj:0)
d11(2,10)                                           1 	(obj:0)
d11(2,11)                                           1 	(obj:0)
d11(2,12)                                           1 	(obj:0)
d11(3,13)                                           1 	(obj:0)
d11(3,14)                                           1 	(obj:0)
d11(3,16)                                           1 	(obj:0)
d11(3,19)                                           1 	(obj:0)
d11(3,22)                                           1 	(obj:0)
d11(3,23)                                           1 	(obj:0)
d11(3,25)                                           1 	(obj:0)
d11(3,28)                                           1 	(obj:0)
d11(3,31)                                           1 	(obj:0)
d11(3,34)                                           1 	(obj:0)
d11(3,37)                                           1 	(obj:0)
d11(4,40)                                           1 	(obj:0)
d11(4,41)                                           1 	(obj:0)
d11(4,43)                                           1 	(obj:0)
d11(4,44)                                           1 	(obj:0)
d11(4,46)                                           1 	(obj:0)
d11(4,47)                                           1 	(obj:0)
d11(4,49)                                           1 	(obj:0)
d11(4,50)                                           1 	(obj:0)
d11(4,52)                                           1 	(obj:0)
d11(4,53)                                           1 	(obj:0)
d11(4,55)                                           1 	(obj:0)
d11(4,56)                                           1 	(obj:0)
d11(4,58)                                           1 	(obj:0)
d11(4,59)                                           1 	(obj:0)
d11(4,61)                                           1 	(obj:0)
d11(4,62)                                           1 	(obj:0)
d11(4,64)                                           1 	(obj:0)
d11(4,65)                                           1 	(obj:0)
d11(4,67)                                           1 	(obj:0)
d11(4,68)                                           1 	(obj:0)
d11(4,70)                                           1 	(obj:0)
d11(4,71)                                           1 	(obj:0)
d11(4,73)                                           1 	(obj:0)
d11(4,74)                                           1 	(obj:0)
d11(4,76)                                           1 	(obj:0)
d11(4,77)                                           1 	(obj:0)
d11(4,79)                                           1 	(obj:0)
d11(4,80)                                           1 	(obj:0)
d11(4,82)                                           1 	(obj:0)
d11(4,83)                                           1 	(obj:0)
d11(4,85)                                           1 	(obj:0)
d11(4,86)                                           1 	(obj:0)
d11(4,88)                                           1 	(obj:0)
d11(4,89)                                           1 	(obj:0)
d11(4,91)                                           1 	(obj:0)
d11(4,92)                                           1 	(obj:0)
d11(4,94)                                           1 	(obj:0)
d11(4,95)                                           1 	(obj:0)
d11(4,97)                                           1 	(obj:0)
d11(4,98)                                           1 	(obj:0)
d11(4,100)                                          1 	(obj:0)
d11(4,101)                                          1 	(obj:0)
d11(4,103)                                          1 	(obj:0)
d11(4,104)                                          1 	(obj:0)
d11(4,106)                                          1 	(obj:0)
d11(4,107)                                          1 	(obj:0)
d11(4,109)                                          1 	(obj:0)
d11(4,110)                                          1 	(obj:0)
d11(4,112)                                          1 	(obj:0)
d11(4,113)                                          1 	(obj:0)
d11(4,115)                                          1 	(obj:0)
d11(4,116)                                          1 	(obj:0)
d11(4,118)                                          1 	(obj:0)
d11(4,119)                                          1 	(obj:0)
d12(3,15)                                           1 	(obj:0)
d12(3,18)                                           1 	(obj:0)
d12(3,21)                                           1 	(obj:0)
d12(3,24)                                           1 	(obj:0)
d12(3,27)                                           1 	(obj:0)
d12(3,30)                                           1 	(obj:0)
d12(3,33)                                           1 	(obj:0)
d12(3,36)                                           1 	(obj:0)
d12(3,39)                                           1 	(obj:0)
d12(4,60)                                           1 	(obj:0)
d12(4,93)                                           1 	(obj:0)
d12(4,120)                                          1 	(obj:0)
d21(3,13)                                           1 	(obj:0)
d21(3,14)                                           1 	(obj:0)
d21(3,16)                                           1 	(obj:0)
d21(3,22)                                           1 	(obj:0)
d21(4,40)                                           1 	(obj:0)
d21(4,41)                                           1 	(obj:0)
d21(4,42)                                           1 	(obj:0)
d21(4,43)                                           1 	(obj:0)
d21(4,44)                                           1 	(obj:0)
d21(4,45)                                           1 	(obj:0)
d21(4,46)                                           1 	(obj:0)
d21(4,47)                                           1 	(obj:0)
d21(4,49)                                           1 	(obj:0)
d21(4,50)                                           1 	(obj:0)
d21(4,51)                                           1 	(obj:0)
d21(4,52)                                           1 	(obj:0)
d21(4,53)                                           1 	(obj:0)
d21(4,55)                                           1 	(obj:0)
d21(4,58)                                           1 	(obj:0)
d21(4,59)                                           1 	(obj:0)
d21(4,61)                                           1 	(obj:0)
d21(4,67)                                           1 	(obj:0)
d21(4,68)                                           1 	(obj:0)
d21(4,69)                                           1 	(obj:0)
d21(4,70)                                           1 	(obj:0)
d21(4,71)                                           1 	(obj:0)
d21(4,73)                                           1 	(obj:0)
d21(4,76)                                           1 	(obj:0)
d21(4,77)                                           1 	(obj:0)
d21(4,79)                                           1 	(obj:0)
d21(4,82)                                           1 	(obj:0)
d21(4,85)                                           1 	(obj:0)
d21(4,94)                                           1 	(obj:0)
d21(4,95)                                           1 	(obj:0)
d21(4,97)                                           1 	(obj:0)
d21(4,103)                                          1 	(obj:0)
STE(1,1)                               3581.781793333 	(obj:0)
STE(0,0)                                         6300 	(obj:0)
STE(1,2)                             4578.54779666626 	(obj:0)
STE(1,3)                             5795.99999999967 	(obj:0)
STE(2,4)                             754.140296084754 	(obj:0)
STE(2,5)                             1750.90629941804 	(obj:0)
STE(2,6)                             2968.35850275145 	(obj:0)
STE(2,7)                             1750.90629941801 	(obj:0)
STE(2,8)                              2747.6723027513 	(obj:0)
STE(2,9)                             3965.12450608468 	(obj:0)
STE(2,10)                            2968.35850275142 	(obj:0)
STE(2,11)                            3965.12450608471 	(obj:0)
STE(2,12)                            5182.57670941809 	(obj:0)
STE(3,13)                           -746.625707248596 	(obj:0)
STE(3,14)                            250.140296084695 	(obj:0)
STE(3,15)                            1162.70362993474 	(obj:0)
STE(3,16)                            250.140296084695 	(obj:0)
STE(3,17)                            1246.90629941804 	(obj:0)
STE(3,18)                            2159.46963326803 	(obj:0)
STE(3,19)                             1467.5924994181 	(obj:0)
STE(3,20)                            2464.35850275145 	(obj:0)
STE(3,21)                            3376.92183660144 	(obj:0)
STE(3,22)                            250.140296084663 	(obj:0)
STE(3,23)                            1246.90629941795 	(obj:0)
STE(3,24)                              2159.469633268 	(obj:0)
STE(3,25)                            1246.90629941795 	(obj:0)
STE(3,26)                             2243.6723027513 	(obj:0)
STE(3,27)                            3156.23563660129 	(obj:0)
STE(3,28)                            2464.35850275133 	(obj:0)
STE(3,29)                            3461.12450608468 	(obj:0)
STE(3,30)                            4373.68783993467 	(obj:0)
STE(3,31)                            1467.59249941807 	(obj:0)
STE(3,32)                            2464.35850275142 	(obj:0)
STE(3,33)                            3376.92183660141 	(obj:0)
STE(3,34)                            2464.35850275136 	(obj:0)
STE(3,35)                            3461.12450608471 	(obj:0)
STE(3,36)                             4373.6878399347 	(obj:0)
STE(3,37)                            3681.81070608474 	(obj:0)
STE(3,38)                            4678.57670941809 	(obj:0)
STE(3,39)                            5591.14004326808 	(obj:0)
STE(4,40)                           -3272.86134384992 	(obj:0)
STE(4,41)                           -2276.09534051663 	(obj:0)
STE(4,42)                            -1250.6257072486 	(obj:0)
STE(4,43)                           -2276.09534051663 	(obj:0)
STE(4,44)                           -1279.32933718334 	(obj:0)
STE(4,45)                           -253.859703915305 	(obj:0)
STE(4,46)                           -1363.53200666658 	(obj:0)
STE(4,47)                           -366.766003333292 	(obj:0)
STE(4,48)                            658.703629934741 	(obj:0)
STE(4,49)                           -2276.09534051663 	(obj:0)
STE(4,50)                           -1279.32933718334 	(obj:0)
STE(4,51)                           -253.859703915305 	(obj:0)
STE(4,52)                           -1279.32933718328 	(obj:0)
STE(4,53)                           -282.563333849988 	(obj:0)
STE(4,54)                            742.906299418045 	(obj:0)
STE(4,55)                           -366.766003333291 	(obj:0)
STE(4,56)                                         630 	(obj:0)
STE(4,57)                            1655.46963326803 	(obj:0)
STE(4,58)                           -1058.64313718322 	(obj:0)
STE(4,59)                           -61.8771338499282 	(obj:0)
STE(4,60)                            963.592499418092 	(obj:0)
STE(4,61)                           -61.8771338498686 	(obj:0)
STE(4,62)                            934.888869483422 	(obj:0)
STE(4,63)                            1960.35850275145 	(obj:0)
STE(4,64)                            850.686200000118 	(obj:0)
STE(4,65)                            1847.45220333341 	(obj:0)
STE(4,66)                            2872.92183660144 	(obj:0)
STE(4,67)                           -2276.09534051666 	(obj:0)
STE(4,68)                           -1279.32933718337 	(obj:0)
STE(4,69)                           -253.859703915337 	(obj:0)
STE(4,70)                           -1279.32933718337 	(obj:0)
STE(4,71)                           -282.563333850079 	(obj:0)
STE(4,72)                            742.906299417954 	(obj:0)
STE(4,73)                           -366.766003333323 	(obj:0)
STE(4,74)                            629.999999999968 	(obj:0)
STE(4,75)                              1655.469633268 	(obj:0)
STE(4,76)                           -1279.32933718337 	(obj:0)
STE(4,77)                           -282.563333850079 	(obj:0)
STE(4,78)                            742.906299417954 	(obj:0)
STE(4,79)                           -282.563333850019 	(obj:0)
STE(4,80)                            714.202669483271 	(obj:0)
STE(4,81)                             1739.6723027513 	(obj:0)
STE(4,82)                            629.999999999968 	(obj:0)
STE(4,83)                            1626.76600333326 	(obj:0)
STE(4,84)                            2652.23563660129 	(obj:0)
STE(4,85)                           -61.8771338499914 	(obj:0)
STE(4,86)                            934.888869483299 	(obj:0)
STE(4,87)                            1960.35850275133 	(obj:0)
STE(4,88)                            934.888869483359 	(obj:0)
STE(4,89)                            1931.65487281665 	(obj:0)
STE(4,90)                            2957.12450608468 	(obj:0)
STE(4,91)                            1847.45220333335 	(obj:0)
STE(4,92)                            2844.21820666664 	(obj:0)
STE(4,93)                            3869.68783993467 	(obj:0)
STE(4,94)                           -1058.64313718325 	(obj:0)
STE(4,95)                           -61.8771338499599 	(obj:0)
STE(4,96)                            963.592499418073 	(obj:0)
STE(4,97)                           -61.8771338499006 	(obj:0)
STE(4,98)                             934.88886948339 	(obj:0)
STE(4,99)                            1960.35850275142 	(obj:0)
STE(4,100)                           850.686200000087 	(obj:0)
STE(4,101)                           1847.45220333338 	(obj:0)
STE(4,102)                           2872.92183660141 	(obj:0)
STE(4,103)                          -61.8771338499594 	(obj:0)
STE(4,104)                           934.888869483331 	(obj:0)
STE(4,105)                           1960.35850275136 	(obj:0)
STE(4,106)                            934.88886948339 	(obj:0)
STE(4,107)                           1931.65487281668 	(obj:0)
STE(4,108)                           2957.12450608471 	(obj:0)
STE(4,109)                           1847.45220333338 	(obj:0)
STE(4,110)                           2844.21820666667 	(obj:0)
STE(4,111)                            3869.6878399347 	(obj:0)
STE(4,112)                           1155.57506948342 	(obj:0)
STE(4,113)                           2152.34107281671 	(obj:0)
STE(4,114)                           3177.81070608474 	(obj:0)
STE(4,115)                           2152.34107281677 	(obj:0)
STE(4,116)                           3149.10707615006 	(obj:0)
STE(4,117)                           4174.57670941809 	(obj:0)
STE(4,118)                           3064.90440666676 	(obj:0)
STE(4,119)                           4061.67041000005 	(obj:0)
STE(4,120)                           5087.14004326807 	(obj:0)
y1(4,100)                            1820.01207294119 	(obj:0)
y1(4,101)                            922.922669941229 	(obj:0)
y1(4,103)                            1820.01207294119 	(obj:0)
y1(4,104)                            922.922669941229 	(obj:0)
y1(4,106)                            1820.01207294119 	(obj:0)
y1(4,107)                            922.922669941229 	(obj:0)
y1(4,109)                            1820.01207294119 	(obj:0)
y1(4,110)                            922.922669941229 	(obj:0)
y1(4,112)                            1820.01207294119 	(obj:0)
y1(4,113)                            922.922669941229 	(obj:0)
y1(4,115)                            1820.01207294119 	(obj:0)
y1(4,116)                            922.922669941229 	(obj:0)
y1(4,118)                            1820.01207294119 	(obj:0)
y1(4,119)                            922.922669941229 	(obj:0)
WB(3)                                 3399.3204933139 	(obj:0)
AVE(3)                                3399.3204933139 	(obj:0)
AVE(4)                               3353.21046544222 	(obj:0)
WG(4)                                3353.21046544222 	(obj:10)
BG(1)                                4495.91835000029 	(obj:10)
BG(2)                                 4596.4091270647 	(obj:10)
BG(3)                                         3377.85 	(obj:10)
BG(4)                                966.397361028368 	(obj:10)
WB(1)                                3134.60043707458 	(obj:0)
AVE(1)                               3134.60043707458 	(obj:0)
WB(2)                                3326.45170866643 	(obj:0)
AVE(2)                               3326.45170866643 	(obj:0)
y1(1,1)                               1992.7963860003 	(obj:0)
y1(1,2)                              1095.70698300037 	(obj:0)
y1(2,4)                              2091.27734752342 	(obj:0)
y1(2,5)                              1194.18794452346 	(obj:0)
y1(2,6)                              98.4809615233911 	(obj:0)
y1(2,7)                              2091.27734752342 	(obj:0)
y1(2,8)                              1194.18794452346 	(obj:0)
y1(2,9)                              98.4809615234199 	(obj:0)
y1(2,10)                             2091.27734752342 	(obj:0)
y1(2,11)                             1194.18794452346 	(obj:0)
y1(2,12)                             98.4809615234199 	(obj:0)
y1(3,13)                             897.089403000015 	(obj:0)
y1(3,16)                             897.089403000015 	(obj:0)
y1(3,19)                             897.089403000015 	(obj:0)
y1(3,22)                             897.089403000015 	(obj:0)
y1(3,25)                             897.089403000015 	(obj:0)
y1(3,28)                             897.089403000015 	(obj:0)
y1(3,31)                             897.089403000015 	(obj:0)
y1(3,34)                             897.089403000015 	(obj:0)
y1(3,37)                             897.089403000015 	(obj:0)
y1(4,40)                             1820.01207294119 	(obj:0)
y1(4,41)                             922.922669941229 	(obj:0)
y1(4,43)                             1820.01207294119 	(obj:0)
y1(4,44)                             922.922669941229 	(obj:0)
y1(4,46)                             1820.01207294119 	(obj:0)
y1(4,47)                             922.922669941229 	(obj:0)
y1(4,49)                             1820.01207294119 	(obj:0)
y1(4,50)                             922.922669941229 	(obj:0)
y1(4,52)                             1820.01207294119 	(obj:0)
y1(4,53)                             922.922669941229 	(obj:0)
y1(4,55)                             1820.01207294119 	(obj:0)
y1(4,56)                             922.922669941229 	(obj:0)
y1(4,58)                             1820.01207294119 	(obj:0)
y1(4,59)                             922.922669941229 	(obj:0)
y1(4,61)                             1820.01207294119 	(obj:0)
y1(4,62)                             922.922669941229 	(obj:0)
y1(4,64)                             1820.01207294119 	(obj:0)
y1(4,65)                             922.922669941229 	(obj:0)
y1(4,67)                             1820.01207294119 	(obj:0)
y1(4,68)                             922.922669941229 	(obj:0)
y1(4,70)                             1820.01207294119 	(obj:0)
y1(4,71)                             922.922669941229 	(obj:0)
y1(4,73)                             1820.01207294119 	(obj:0)
y1(4,74)                             922.922669941229 	(obj:0)
y1(4,76)                             1820.01207294119 	(obj:0)
y1(4,77)                             922.922669941229 	(obj:0)
y1(4,79)                             1820.01207294119 	(obj:0)
y1(4,80)                             922.922669941229 	(obj:0)
y1(4,82)                             1820.01207294119 	(obj:0)
y1(4,83)                             922.922669941229 	(obj:0)
y1(4,85)                             1820.01207294119 	(obj:0)
y1(4,86)                             922.922669941229 	(obj:0)
y1(4,88)                             1820.01207294119 	(obj:0)
y1(4,89)                             922.922669941229 	(obj:0)
y1(4,91)                             1820.01207294119 	(obj:0)
y1(4,92)                             922.922669941229 	(obj:0)
y1(4,94)                             1820.01207294119 	(obj:0)
y1(4,95)                             922.922669941229 	(obj:0)
y1(4,97)                             1820.01207294119 	(obj:0)
y1(4,98)                             922.922669941229 	(obj:0)
y2(3,15)                             960.592982999986 	(obj:0)
y2(3,18)                             960.592982999987 	(obj:0)
y2(3,21)                             960.592982999986 	(obj:0)
y2(3,24)                             960.592982999986 	(obj:0)
y2(3,27)                             960.592982999986 	(obj:0)
y2(3,30)                             960.592982999986 	(obj:0)
y2(3,33)                             960.592982999986 	(obj:0)
y2(3,36)                             960.592982999986 	(obj:0)
y2(3,39)                             960.592982999986 	(obj:0)
